69 69  
112 78 1
108 21 1
79 53 1
21 106 1
119 94 1
91 15 1
78 70 1
100 49 1
102 115 1
48 91 1
94 59 1
62 36 1
15 53 1
19 90 1
90 106 1
112 102 1
85 96 1
74 109 1
72 29 1
118 27 1
